100 10
1 89
9 67
68 93
48 30
41 95
16 90
8 12
64 18
61 44
7 74
5 38
39 57
88 15
38 37
8 44
44 44
54 2
4 41
18 8
44 92
73 29
19 21
94 41
9 69
98 83
39 21
53 3
26 31
44 6
85 73
65 56
17 94
39 55
10 100
52 4
26 48
19 73
7 2
17 24
93 30
97 3
97 56
100 59
38 9
35 10
8 22
77 63
42 25
82 79
55 70
33 86
79 98
13 38
19 72
37 70
93 8
63 7
79 92
41 80
74 26
21 57
63 75
16 16
69 20
39 38
92 73
20 76
7 54
89 98
96 48
66 67
62 20
21 66
41 36
70 4
32 6
28 26
37 16
77 7
87 25
4 8
10 58
11 66
24 58
92 98
76 8
26 64
39 70
57 4
18 78
63 34
39 50
38 72
80 63
28 93
72 68
51 2
9 90
70 58
27 13
347 391
332 395
536 614
381 428
360 417
586 667
391 449
495 560
547 669
470 549
